c *********************************
c * Circuit generated by BenCGen
c *
c * CarrySaveAdder_6_6_6_6_7
c *
c * Ports with 1 gate(s): 2
c * Ports with 2 gate(s): 31
c * Total gates: 33
c *********************************
p cnf 51 109
1 33 0
-1 -33 0
1 -32 0
33 -32 0
-1 -33 32 0
32 -25 0
-32 25 0
1 7 -34 0
-1 7 34 0
1 -7 34 0
-1 -7 -34 0
34 13 -19 0
-34 13 19 0
34 -13 19 0
-34 -13 -19 0
13 -35 0
34 -35 0
-13 -34 35 0
7 -36 0
1 -36 0
-7 -1 36 0
-35 26 0
-36 26 0
35 36 -26 0
2 8 -37 0
-2 8 37 0
2 -8 37 0
-2 -8 -37 0
37 14 -20 0
-37 14 20 0
37 -14 20 0
-37 -14 -20 0
14 -38 0
37 -38 0
-14 -37 38 0
8 -39 0
2 -39 0
-8 -2 39 0
-38 27 0
-39 27 0
38 39 -27 0
3 9 -40 0
-3 9 40 0
3 -9 40 0
-3 -9 -40 0
40 15 -21 0
-40 15 21 0
40 -15 21 0
-40 -15 -21 0
15 -41 0
40 -41 0
-15 -40 41 0
9 -42 0
3 -42 0
-9 -3 42 0
-41 28 0
-42 28 0
41 42 -28 0
4 10 -43 0
-4 10 43 0
4 -10 43 0
-4 -10 -43 0
43 16 -22 0
-43 16 22 0
43 -16 22 0
-43 -16 -22 0
16 -44 0
43 -44 0
-16 -43 44 0
10 -45 0
4 -45 0
-10 -4 45 0
-44 29 0
-45 29 0
44 45 -29 0
5 11 -46 0
-5 11 46 0
5 -11 46 0
-5 -11 -46 0
46 17 -23 0
-46 17 23 0
46 -17 23 0
-46 -17 -23 0
17 -47 0
46 -47 0
-17 -46 47 0
11 -48 0
5 -48 0
-11 -5 48 0
-47 30 0
-48 30 0
47 48 -30 0
6 12 -49 0
-6 12 49 0
6 -12 49 0
-6 -12 -49 0
49 18 -24 0
-49 18 24 0
49 -18 24 0
-49 -18 -24 0
18 -50 0
49 -50 0
-18 -49 50 0
12 -51 0
6 -51 0
-12 -6 51 0
-50 31 0
-51 31 0
50 51 -31 0
